c FILE:  MANN_a9.clq.b
c
c By: Carlo Mannino (mannino@iasi.rm.cnr.it)
c
c DESCRIPTION: Clique formulation of the Steiner Triple Problem,
c              translated from the set covering formulation
c
c Graph Size:45, Clique Size: 16
c
c Clique Elements are:
c    3    4    5    9   10   15   16   19   24   27   
c    28   33   36   38  42   45 *
c
c  EDGE DENSITY: 0.9273
p edge 45 918